
Gurobi 6.5.2 (mac64) logging started Sat Apr  8 17:19:08 2017


Gurobi 6.5.2 (mac64) logging started Sat Apr  8 17:20:46 2017


Gurobi 6.5.2 (mac64) logging started Sat Apr  8 17:23:27 2017


Gurobi 6.5.2 (mac64) logging started Sat Apr  8 17:35:46 2017


Gurobi 6.5.2 (mac64) logging started Sat Apr  8 17:49:36 2017


Gurobi 6.5.2 (mac64) logging started Sat Apr  8 18:49:06 2017


Gurobi 6.5.2 (mac64) logging started Sat Apr  8 19:28:52 2017


Gurobi 6.5.2 (mac64) logging started Sat Apr  8 19:31:12 2017


Gurobi 6.5.2 (mac64) logging started Sat Apr  8 19:35:47 2017


Gurobi 6.5.2 (mac64) logging started Sat Apr  8 19:38:31 2017


Gurobi 6.5.2 (mac64) logging started Sun Apr  9 12:39:31 2017


Gurobi 6.5.2 (mac64) logging started Sun Apr  9 14:08:33 2017


Gurobi 6.5.2 (mac64) logging started Sun Apr  9 14:21:54 2017


Gurobi 6.5.2 (mac64) logging started Sun Apr  9 16:36:08 2017


Gurobi 6.5.2 (mac64) logging started Sun Apr  9 16:38:26 2017


Gurobi 6.5.2 (mac64) logging started Sun Apr  9 17:29:05 2017


Gurobi 6.5.2 (mac64) logging started Sun Apr  9 17:29:36 2017


Gurobi 6.5.2 (mac64) logging started Sun Apr  9 17:53:05 2017


Gurobi 6.5.2 (mac64) logging started Sun Apr  9 17:55:58 2017


Gurobi 6.5.2 (mac64) logging started Sun Apr  9 18:00:29 2017


Gurobi 6.5.2 (mac64) logging started Sun Apr  9 18:01:15 2017


Gurobi 6.5.2 (mac64) logging started Sun Apr  9 18:02:10 2017


Gurobi 6.5.2 (mac64) logging started Sun Apr  9 18:05:07 2017


Gurobi 6.5.2 (mac64) logging started Sun Apr  9 18:07:49 2017


Gurobi 6.5.2 (mac64) logging started Sun Apr  9 18:22:01 2017


Gurobi 6.5.2 (mac64) logging started Sun Apr  9 18:24:04 2017


Gurobi 6.5.2 (mac64) logging started Sun Apr  9 22:31:03 2017


Gurobi 6.5.2 (mac64) logging started Sun Apr  9 22:34:31 2017


Gurobi 6.5.2 (mac64) logging started Sun Apr  9 22:34:52 2017


Gurobi 6.5.2 (mac64) logging started Sun Apr  9 22:35:23 2017


Gurobi 6.5.2 (mac64) logging started Sun Apr  9 22:36:36 2017


Gurobi 6.5.2 (mac64) logging started Sun Apr  9 22:42:40 2017


Gurobi 6.5.2 (mac64) logging started Sun Apr  9 22:45:00 2017


Gurobi 6.5.2 (mac64) logging started Sun Apr  9 22:47:51 2017


Gurobi 6.5.2 (mac64) logging started Sun Apr  9 22:48:11 2017


Gurobi 6.5.2 (mac64) logging started Sun Apr  9 22:49:52 2017


Gurobi 6.5.2 (mac64) logging started Sun Apr  9 22:50:45 2017


Gurobi 6.5.2 (mac64) logging started Sun Apr  9 22:51:37 2017


Gurobi 6.5.2 (mac64) logging started Sun Apr  9 22:53:14 2017


Gurobi 6.5.2 (mac64) logging started Sun Apr  9 22:55:01 2017


Gurobi 6.5.2 (mac64) logging started Sun Apr  9 22:56:26 2017


Gurobi 6.5.2 (mac64) logging started Sun Apr  9 22:58:56 2017


Gurobi 6.5.2 (mac64) logging started Sun Apr  9 23:00:22 2017


Gurobi 6.5.2 (mac64) logging started Sun Apr  9 23:01:26 2017


Gurobi 6.5.2 (mac64) logging started Sun Apr  9 23:02:03 2017


Gurobi 6.5.2 (mac64) logging started Sun Apr  9 23:03:07 2017


Gurobi 6.5.2 (mac64) logging started Sun Apr  9 23:12:19 2017


Gurobi 6.5.2 (mac64) logging started Sun Apr  9 23:41:08 2017


Gurobi 6.5.2 (mac64) logging started Sun Apr  9 23:42:02 2017


Gurobi 6.5.2 (mac64) logging started Mon Apr 10 00:14:03 2017


Gurobi 6.5.2 (mac64) logging started Mon Apr 10 00:16:49 2017


Gurobi 6.5.2 (mac64) logging started Mon Apr 10 00:20:01 2017


Gurobi 6.5.2 (mac64) logging started Mon Apr 10 00:21:50 2017


Gurobi 6.5.2 (mac64) logging started Mon Apr 10 00:23:30 2017


Gurobi 6.5.2 (mac64) logging started Mon Apr 10 00:26:41 2017


Gurobi 6.5.2 (mac64) logging started Mon Apr 10 00:30:47 2017


Gurobi 6.5.2 (mac64) logging started Mon Apr 10 00:39:22 2017


Gurobi 6.5.2 (mac64) logging started Mon Apr 10 17:20:33 2017


Gurobi 6.5.2 (mac64) logging started Mon Apr 10 17:21:19 2017


Gurobi 6.5.2 (mac64) logging started Mon Apr 10 19:14:16 2017


Gurobi 6.5.2 (mac64) logging started Mer 12 avr 00:09:43 2017


Gurobi 6.5.2 (mac64) logging started Mer 12 avr 00:10:11 2017


Gurobi 6.5.2 (mac64) logging started Mer 12 avr 00:10:58 2017


Gurobi 6.5.2 (mac64) logging started Mer 12 avr 00:11:22 2017


Gurobi 6.5.2 (mac64) logging started Mer 12 avr 00:12:00 2017


Gurobi 6.5.2 (mac64) logging started Mer 12 avr 00:13:34 2017


Gurobi 6.5.2 (mac64) logging started Mer 12 avr 00:14:24 2017


Gurobi 6.5.2 (mac64) logging started Mer 12 avr 00:16:20 2017


Gurobi 6.5.2 (mac64) logging started Mer 12 avr 00:16:49 2017


Gurobi 6.5.2 (mac64) logging started Mer 12 avr 00:23:17 2017


Gurobi 6.5.2 (mac64) logging started Mer 12 avr 00:27:29 2017


Gurobi 6.5.2 (mac64) logging started Mer 12 avr 00:38:18 2017


Gurobi 6.5.2 (mac64) logging started Mer 12 avr 00:51:28 2017


Gurobi 6.5.2 (mac64) logging started Mer 12 avr 00:52:08 2017


Gurobi 6.5.2 (mac64) logging started Mer 12 avr 00:52:45 2017


Gurobi 6.5.2 (mac64) logging started Jeu 13 avr 10:44:31 2017


Gurobi 6.5.2 (mac64) logging started Jeu 13 avr 14:22:18 2017


Gurobi 6.5.2 (mac64) logging started Jeu 13 avr 15:03:49 2017


Gurobi 6.5.2 (mac64) logging started Jeu 13 avr 15:04:27 2017


Gurobi 6.5.2 (mac64) logging started Jeu 13 avr 15:18:53 2017


Gurobi 6.5.2 (mac64) logging started Jeu 13 avr 23:51:20 2017


Gurobi 6.5.2 (mac64) logging started Jeu 13 avr 23:52:21 2017


Gurobi 6.5.2 (mac64) logging started Ven 14 avr 00:01:57 2017


Gurobi 6.5.2 (mac64) logging started Ven 14 avr 00:05:56 2017


Gurobi 6.5.2 (mac64) logging started Ven 14 avr 00:09:01 2017


Gurobi 6.5.2 (mac64) logging started Ven 14 avr 00:11:37 2017


Gurobi 6.5.2 (mac64) logging started Ven 14 avr 00:12:44 2017


Gurobi 6.5.2 (mac64) logging started Ven 14 avr 00:15:29 2017


Gurobi 6.5.2 (mac64) logging started Ven 14 avr 00:15:42 2017


Gurobi 6.5.2 (mac64) logging started Ven 14 avr 00:22:08 2017


Gurobi 6.5.2 (mac64) logging started Ven 14 avr 00:25:05 2017


Gurobi 6.5.2 (mac64) logging started Ven 14 avr 00:36:39 2017


Gurobi 6.5.2 (mac64) logging started Ven 14 avr 00:37:33 2017


Gurobi 6.5.2 (mac64) logging started Ven 14 avr 00:43:54 2017


Gurobi 6.5.2 (mac64) logging started Ven 14 avr 17:26:55 2017


Gurobi 6.5.2 (mac64) logging started Ven 14 avr 17:27:37 2017


Gurobi 6.5.2 (mac64) logging started Ven 14 avr 17:28:42 2017


Gurobi 6.5.2 (mac64) logging started Ven 14 avr 17:30:30 2017


Gurobi 6.5.2 (mac64) logging started Ven 14 avr 17:31:52 2017


Gurobi 6.5.2 (mac64) logging started Ven 14 avr 17:32:24 2017


Gurobi 6.5.2 (mac64) logging started Ven 14 avr 17:33:00 2017


Gurobi 6.5.2 (mac64) logging started Ven 14 avr 17:35:19 2017


Gurobi 6.5.2 (mac64) logging started Ven 14 avr 17:36:06 2017


Gurobi 6.5.2 (mac64) logging started Ven 14 avr 17:48:35 2017


Gurobi 6.5.2 (mac64) logging started Ven 14 avr 17:51:32 2017


Gurobi 6.5.2 (mac64) logging started Ven 14 avr 17:58:47 2017


Gurobi 6.5.2 (mac64) logging started Ven 14 avr 17:59:22 2017


Gurobi 6.5.2 (mac64) logging started Ven 14 avr 18:03:56 2017


Gurobi 6.5.2 (mac64) logging started Ven 14 avr 18:05:06 2017


Gurobi 6.5.2 (mac64) logging started Ven 14 avr 18:05:30 2017


Gurobi 6.5.2 (mac64) logging started Ven 14 avr 19:02:00 2017


Gurobi 6.5.2 (mac64) logging started Ven 14 avr 21:04:10 2017


Gurobi 6.5.2 (mac64) logging started Sam 15 avr 00:32:16 2017


Gurobi 6.5.2 (mac64) logging started Sam 15 avr 00:35:18 2017


Gurobi 6.5.2 (mac64) logging started Sam 15 avr 00:38:42 2017


Gurobi 6.5.2 (mac64) logging started Sam 15 avr 00:39:43 2017


Gurobi 6.5.2 (mac64) logging started Sam 15 avr 00:40:05 2017


Gurobi 6.5.2 (mac64) logging started Sam 15 avr 09:44:51 2017


Gurobi 6.5.2 (mac64) logging started Sam 15 avr 09:47:21 2017


Gurobi 6.5.2 (mac64) logging started Sam 15 avr 09:48:01 2017


Gurobi 6.5.2 (mac64) logging started Sam 15 avr 09:50:29 2017


Gurobi 6.5.2 (mac64) logging started Sam 15 avr 09:59:10 2017


Gurobi 6.5.2 (mac64) logging started Sam 15 avr 10:19:31 2017


Gurobi 6.5.2 (mac64) logging started Sam 15 avr 13:48:43 2017

